c This file is generated by _findSolu
c Generated on Mon Nov  9 21:24:28 2015
p cnf 303 789
-1 -3 -23 0
1 23 0
3 23 0
-3 -4 -20 0
3 20 0
4 20 0
-2 -39 -22 0
2 22 0
39 22 0
-5 -39 -21 0
5 21 0
39 21 0
-26 -65 -18 0
26 18 0
65 18 0
-65 -91 -19 0
65 19 0
91 19 0
6 24 0
-6 -24 0
7 25 0
-7 -25 0
-1 -24 27 0
1 -27 0
24 -27 0
-23 -6 28 0
23 -28 0
6 -28 0
-4 -24 29 0
4 -29 0
24 -29 0
-23 -6 30 0
23 -30 0
6 -30 0
-27 -25 31 0
27 -31 0
25 -31 0
-28 -7 32 0
28 -32 0
7 -32 0
-29 -25 33 0
29 -33 0
25 -33 0
-30 -7 34 0
30 -34 0
7 -34 0
31 32 -35 0
-31 35 0
-32 35 0
33 35 -36 0
-33 36 0
-35 36 0
36 34 -26 0
-36 26 0
-34 26 0
8 37 0
-8 -37 0
9 38 0
-9 -38 0
-1 -37 40 0
1 -40 0
37 -40 0
-20 -8 41 0
20 -41 0
8 -41 0
-4 -37 42 0
4 -42 0
37 -42 0
-20 -8 43 0
20 -43 0
8 -43 0
-40 -38 44 0
40 -44 0
38 -44 0
-41 -9 45 0
41 -45 0
9 -45 0
-42 -38 46 0
42 -46 0
38 -46 0
-43 -9 47 0
43 -47 0
9 -47 0
44 45 -48 0
-44 48 0
-45 48 0
46 48 -49 0
-46 49 0
-48 49 0
49 47 -39 0
-49 39 0
-47 39 0
10 50 0
-10 -50 0
11 51 0
-11 -51 0
-1 -50 53 0
1 -53 0
50 -53 0
-20 -10 54 0
20 -54 0
10 -54 0
-4 -50 55 0
4 -55 0
50 -55 0
-20 -10 56 0
20 -56 0
10 -56 0
-53 -51 57 0
53 -57 0
51 -57 0
-54 -11 58 0
54 -58 0
11 -58 0
-55 -51 59 0
55 -59 0
51 -59 0
-56 -11 60 0
56 -60 0
11 -60 0
57 58 -61 0
-57 61 0
-58 61 0
59 61 -62 0
-59 62 0
-61 62 0
62 60 -52 0
-62 52 0
-60 52 0
12 63 0
-12 -63 0
13 64 0
-13 -64 0
-1 -63 66 0
1 -66 0
63 -66 0
-22 -12 67 0
22 -67 0
12 -67 0
-4 -63 68 0
4 -68 0
63 -68 0
-22 -12 69 0
22 -69 0
12 -69 0
-66 -64 70 0
66 -70 0
64 -70 0
-67 -13 71 0
67 -71 0
13 -71 0
-68 -64 72 0
68 -72 0
64 -72 0
-69 -13 73 0
69 -73 0
13 -73 0
70 71 -74 0
-70 74 0
-71 74 0
72 74 -75 0
-72 75 0
-74 75 0
75 73 -65 0
-75 65 0
-73 65 0
14 76 0
-14 -76 0
15 77 0
-15 -77 0
-1 -76 79 0
1 -79 0
76 -79 0
-22 -14 80 0
22 -80 0
14 -80 0
-4 -76 81 0
4 -81 0
76 -81 0
-22 -14 82 0
22 -82 0
14 -82 0
-79 -77 83 0
79 -83 0
77 -83 0
-80 -15 84 0
80 -84 0
15 -84 0
-81 -77 85 0
81 -85 0
77 -85 0
-82 -15 86 0
82 -86 0
15 -86 0
83 84 -87 0
-83 87 0
-84 87 0
85 87 -88 0
-85 88 0
-87 88 0
88 86 -78 0
-88 78 0
-86 78 0
16 89 0
-16 -89 0
17 90 0
-17 -90 0
-1 -89 92 0
1 -92 0
89 -92 0
-21 -16 93 0
21 -93 0
16 -93 0
-4 -89 94 0
4 -94 0
89 -94 0
-21 -16 95 0
21 -95 0
16 -95 0
-92 -90 96 0
92 -96 0
90 -96 0
-93 -17 97 0
93 -97 0
17 -97 0
-94 -90 98 0
94 -98 0
90 -98 0
-95 -17 99 0
95 -99 0
17 -99 0
96 97 -100 0
-96 100 0
-97 100 0
98 100 -101 0
-98 101 0
-100 101 0
101 99 -91 0
-101 91 0
-99 91 0
-1 0
-2 0
3 0
4 0
-5 0
-18 0
-19 0
c New duplicated circuit:
-102 -104 -124 0
102 124 0
104 124 0
-104 -105 -121 0
104 121 0
105 121 0
-103 -140 -123 0
103 123 0
140 123 0
-106 -140 -122 0
106 122 0
140 122 0
-127 -166 -119 0
127 119 0
166 119 0
-166 -192 -120 0
166 120 0
192 120 0
107 125 0
-107 -125 0
108 126 0
-108 -126 0
-102 -125 128 0
102 -128 0
125 -128 0
-124 -107 129 0
124 -129 0
107 -129 0
-105 -125 130 0
105 -130 0
125 -130 0
-124 -107 131 0
124 -131 0
107 -131 0
-128 -126 132 0
128 -132 0
126 -132 0
-129 -108 133 0
129 -133 0
108 -133 0
-130 -126 134 0
130 -134 0
126 -134 0
-131 -108 135 0
131 -135 0
108 -135 0
132 133 -136 0
-132 136 0
-133 136 0
134 136 -137 0
-134 137 0
-136 137 0
137 135 -127 0
-137 127 0
-135 127 0
109 138 0
-109 -138 0
110 139 0
-110 -139 0
-102 -138 141 0
102 -141 0
138 -141 0
-121 -109 142 0
121 -142 0
109 -142 0
-105 -138 143 0
105 -143 0
138 -143 0
-121 -109 144 0
121 -144 0
109 -144 0
-141 -139 145 0
141 -145 0
139 -145 0
-142 -110 146 0
142 -146 0
110 -146 0
-143 -139 147 0
143 -147 0
139 -147 0
-144 -110 148 0
144 -148 0
110 -148 0
145 146 -149 0
-145 149 0
-146 149 0
147 149 -150 0
-147 150 0
-149 150 0
150 148 -140 0
-150 140 0
-148 140 0
111 151 0
-111 -151 0
112 152 0
-112 -152 0
-102 -151 154 0
102 -154 0
151 -154 0
-121 -111 155 0
121 -155 0
111 -155 0
-105 -151 156 0
105 -156 0
151 -156 0
-121 -111 157 0
121 -157 0
111 -157 0
-154 -152 158 0
154 -158 0
152 -158 0
-155 -112 159 0
155 -159 0
112 -159 0
-156 -152 160 0
156 -160 0
152 -160 0
-157 -112 161 0
157 -161 0
112 -161 0
158 159 -162 0
-158 162 0
-159 162 0
160 162 -163 0
-160 163 0
-162 163 0
163 161 -153 0
-163 153 0
-161 153 0
113 164 0
-113 -164 0
114 165 0
-114 -165 0
-102 -164 167 0
102 -167 0
164 -167 0
-123 -113 168 0
123 -168 0
113 -168 0
-105 -164 169 0
105 -169 0
164 -169 0
-123 -113 170 0
123 -170 0
113 -170 0
-167 -165 171 0
167 -171 0
165 -171 0
-168 -114 172 0
168 -172 0
114 -172 0
-169 -165 173 0
169 -173 0
165 -173 0
-170 -114 174 0
170 -174 0
114 -174 0
171 172 -175 0
-171 175 0
-172 175 0
173 175 -176 0
-173 176 0
-175 176 0
176 174 -166 0
-176 166 0
-174 166 0
115 177 0
-115 -177 0
116 178 0
-116 -178 0
-102 -177 180 0
102 -180 0
177 -180 0
-123 -115 181 0
123 -181 0
115 -181 0
-105 -177 182 0
105 -182 0
177 -182 0
-123 -115 183 0
123 -183 0
115 -183 0
-180 -178 184 0
180 -184 0
178 -184 0
-181 -116 185 0
181 -185 0
116 -185 0
-182 -178 186 0
182 -186 0
178 -186 0
-183 -116 187 0
183 -187 0
116 -187 0
184 185 -188 0
-184 188 0
-185 188 0
186 188 -189 0
-186 189 0
-188 189 0
189 187 -179 0
-189 179 0
-187 179 0
117 190 0
-117 -190 0
118 191 0
-118 -191 0
-102 -190 193 0
102 -193 0
190 -193 0
-122 -117 194 0
122 -194 0
117 -194 0
-105 -190 195 0
105 -195 0
190 -195 0
-122 -117 196 0
122 -196 0
117 -196 0
-193 -191 197 0
193 -197 0
191 -197 0
-194 -118 198 0
194 -198 0
118 -198 0
-195 -191 199 0
195 -199 0
191 -199 0
-196 -118 200 0
196 -200 0
118 -200 0
197 198 -201 0
-197 201 0
-198 201 0
199 201 -202 0
-199 202 0
-201 202 0
202 200 -192 0
-202 192 0
-200 192 0
6 -107 0
-6 107 0
7 -108 0
-7 108 0
8 -109 0
-8 109 0
9 -110 0
-9 110 0
10 -111 0
-10 111 0
11 -112 0
-11 112 0
12 -113 0
-12 113 0
13 -114 0
-13 114 0
14 -115 0
-14 115 0
15 -116 0
-15 116 0
16 -117 0
-16 117 0
17 -118 0
-17 118 0
-102 0
103 0
-104 0
-105 0
-106 0
119 0
-120 0
c New duplicated circuit:
-203 -205 -225 0
203 225 0
205 225 0
-205 -206 -222 0
205 222 0
206 222 0
-204 -241 -224 0
204 224 0
241 224 0
-207 -241 -223 0
207 223 0
241 223 0
-228 -267 -220 0
228 220 0
267 220 0
-267 -293 -221 0
267 221 0
293 221 0
208 226 0
-208 -226 0
209 227 0
-209 -227 0
-203 -226 229 0
203 -229 0
226 -229 0
-225 -208 230 0
225 -230 0
208 -230 0
-206 -226 231 0
206 -231 0
226 -231 0
-225 -208 232 0
225 -232 0
208 -232 0
-229 -227 233 0
229 -233 0
227 -233 0
-230 -209 234 0
230 -234 0
209 -234 0
-231 -227 235 0
231 -235 0
227 -235 0
-232 -209 236 0
232 -236 0
209 -236 0
233 234 -237 0
-233 237 0
-234 237 0
235 237 -238 0
-235 238 0
-237 238 0
238 236 -228 0
-238 228 0
-236 228 0
210 239 0
-210 -239 0
211 240 0
-211 -240 0
-203 -239 242 0
203 -242 0
239 -242 0
-222 -210 243 0
222 -243 0
210 -243 0
-206 -239 244 0
206 -244 0
239 -244 0
-222 -210 245 0
222 -245 0
210 -245 0
-242 -240 246 0
242 -246 0
240 -246 0
-243 -211 247 0
243 -247 0
211 -247 0
-244 -240 248 0
244 -248 0
240 -248 0
-245 -211 249 0
245 -249 0
211 -249 0
246 247 -250 0
-246 250 0
-247 250 0
248 250 -251 0
-248 251 0
-250 251 0
251 249 -241 0
-251 241 0
-249 241 0
212 252 0
-212 -252 0
213 253 0
-213 -253 0
-203 -252 255 0
203 -255 0
252 -255 0
-222 -212 256 0
222 -256 0
212 -256 0
-206 -252 257 0
206 -257 0
252 -257 0
-222 -212 258 0
222 -258 0
212 -258 0
-255 -253 259 0
255 -259 0
253 -259 0
-256 -213 260 0
256 -260 0
213 -260 0
-257 -253 261 0
257 -261 0
253 -261 0
-258 -213 262 0
258 -262 0
213 -262 0
259 260 -263 0
-259 263 0
-260 263 0
261 263 -264 0
-261 264 0
-263 264 0
264 262 -254 0
-264 254 0
-262 254 0
214 265 0
-214 -265 0
215 266 0
-215 -266 0
-203 -265 268 0
203 -268 0
265 -268 0
-224 -214 269 0
224 -269 0
214 -269 0
-206 -265 270 0
206 -270 0
265 -270 0
-224 -214 271 0
224 -271 0
214 -271 0
-268 -266 272 0
268 -272 0
266 -272 0
-269 -215 273 0
269 -273 0
215 -273 0
-270 -266 274 0
270 -274 0
266 -274 0
-271 -215 275 0
271 -275 0
215 -275 0
272 273 -276 0
-272 276 0
-273 276 0
274 276 -277 0
-274 277 0
-276 277 0
277 275 -267 0
-277 267 0
-275 267 0
216 278 0
-216 -278 0
217 279 0
-217 -279 0
-203 -278 281 0
203 -281 0
278 -281 0
-224 -216 282 0
224 -282 0
216 -282 0
-206 -278 283 0
206 -283 0
278 -283 0
-224 -216 284 0
224 -284 0
216 -284 0
-281 -279 285 0
281 -285 0
279 -285 0
-282 -217 286 0
282 -286 0
217 -286 0
-283 -279 287 0
283 -287 0
279 -287 0
-284 -217 288 0
284 -288 0
217 -288 0
285 286 -289 0
-285 289 0
-286 289 0
287 289 -290 0
-287 290 0
-289 290 0
290 288 -280 0
-290 280 0
-288 280 0
218 291 0
-218 -291 0
219 292 0
-219 -292 0
-203 -291 294 0
203 -294 0
291 -294 0
-223 -218 295 0
223 -295 0
218 -295 0
-206 -291 296 0
206 -296 0
291 -296 0
-223 -218 297 0
223 -297 0
218 -297 0
-294 -292 298 0
294 -298 0
292 -298 0
-295 -219 299 0
295 -299 0
219 -299 0
-296 -292 300 0
296 -300 0
292 -300 0
-297 -219 301 0
297 -301 0
219 -301 0
298 299 -302 0
-298 302 0
-299 302 0
300 302 -303 0
-300 303 0
-302 303 0
303 301 -293 0
-303 293 0
-301 293 0
6 -208 0
-6 208 0
7 -209 0
-7 209 0
8 -210 0
-8 210 0
9 -211 0
-9 211 0
10 -212 0
-10 212 0
11 -213 0
-11 213 0
12 -214 0
-12 214 0
13 -215 0
-13 215 0
14 -216 0
-14 216 0
15 -217 0
-15 217 0
16 -218 0
-16 218 0
17 -219 0
-17 219 0
203 0
204 0
-205 0
-206 0
-207 0
220 0
-221 0
